instances/knapsack/discrete/knapsack_80_4.kp
10011
80
399

66 6.6 59
91 9.1 19
25 2.5 81
34 3.4 73
83 8.3 26
88 8.8 26
8 0.8 74
58 5.8 68
40 4.0 75
13 1.3 71
62 6.2 12
94 9.4 52
87 8.7 96
99 9.9 63
99 9.9 24
11 1.1 1
68 6.8 11
27 2.7 15
84 8.4 15
37 3.7 98
72 7.2 98
22 2.2 64
31 3.1 93
21 2.1 17
75 7.5 6
99 9.9 23
93 9.3 85
62 6.2 92
48 4.8 43
14 1.4 93
32 3.2 26
34 3.4 77
58 5.8 97
88 8.8 16
55 5.5 92
12 1.2 78
83 8.3 18
3 0.3 8
31 3.1 35
9 0.9 24
14 1.4 85
20 2.0 78
41 4.1 22
92 9.2 96
62 6.2 83
61 6.1 4
72 7.2 73
80 8.0 81
82 8.2 33
15 1.5 26
65 6.5 88
51 5.1 27
8 0.8 84
23 2.3 50
11 1.1 13
58 5.8 83
24 2.4 7
21 2.1 13
47 4.7 65
49 4.9 28
55 5.5 61
73 7.3 39
42 4.2 66
69 6.9 18
46 4.6 67
43 4.3 98
23 2.3 54
97 9.7 26
71 7.1 81
96 9.6 38
8 0.8 22
76 7.6 60
89 8.9 38
62 6.2 62
38 3.8 31
87 8.7 39
33 3.3 47
90 9.0 66
7 0.7 41
77 7.7 84

52428
364

[2.78 2.39 1.57 2.52 3.43 0.31 4.1 3.32 2.13 0.08 2.27 2.29 1.08 2.06 0.23 4.27 0.44 2.11 3.84 1.14 2.75 0.29 4.01 3.22 0.63 3.14 1.36 2.2 4.26 1.7 2.32 4.27 3.38 2.22 3.28 2.96 0.27 3.88 3.34 2.28 3.57 0.63 0.84 0.58 1.02 1.35 0.36 3.2 0.92 1.17 2.39 0.33 3.58 2.08 0.52 3.34 1.76 0.83 2.0 1.67 4.53 0.26 4.0 2.24 2.89 2.07 2.49 1.16 2.29 4.26 3.71 3.99 1.42 0.03 4.06 2.61 3.73 2.45 1.54 0.44]

[81 1 15 20 57 83 90 65 78 95 45 64 97 9 34 86 18 37 30 3 14 29 53 92 2 5 59 37 79 68 79 37 65 34 13 78 53 26 17 8 100 91 23 55 12 64 43 59 88 57 36 61 10 57 38 13 2 12 81 15 22 24 5 16 93 25 30 72 13 15 75 99 71 100 85 6 28 92 86 100]
