instances/knapsack/discrete/knapsack_80_4.lp
\ Model knapsack_80_4
\ LP format - for model browsing. Use MPS format to capture full model detail.
\ Signature: 0xf86d0bbf74a39a5e
Minimize
  - 5 x[0] - 69 x[1] - 19 x[2] - 15 x[3] - 84 x[4] - 92 x[5] - 28 x[6]
   - 86 x[7] - 33 x[8] - 77 x[9] - 10 x[10] - 78 x[11] - 94 x[12]
   - 17 x[13] - 10 x[14] - 31 x[15] - 13 x[16] - 9 x[17] - 53 x[18]
   - 52 x[19] - 80 x[20] - 22 x[21] - 59 x[22] - 79 x[23] - 64 x[24]
   - 25 x[25] - 71 x[26] - 6 x[27] - 93 x[28] - 59 x[29] - 88 x[30]
   - 59 x[31] - 87 x[32] - 30 x[33] - 14 x[34] - 20 x[35] - 12 x[36]
   - 82 x[37] - 57 x[38] - 54 x[39] - 39 x[40] - 80 x[41] - 24 x[42]
   - 50 x[43] - x[44] - 70 x[45] - 15 x[46] - 47 x[47] - 59 x[48]
   - 44 x[49] - 34 x[50] - 45 x[51] - 22 x[52] - 88 x[53] - 43 x[54]
   - 9 x[55] - 17 x[56] - 55 x[57] - 19 x[58] - 62 x[59] - 47 x[60]
   - 21 x[61] - 80 x[62] - 36 x[63] - 5 x[64] - 40 x[65] - 12 x[66]
   - 8 x[67] - 11 x[68] - 8 x[69] - 48 x[70] - 86 x[71] - 72 x[72]
   - 40 x[73] - 9 x[74] - 85 x[75] - 53 x[76] - 88 x[77] - 27 x[78]
   - 58 x[79]
Subject To
 primal_upper: 76 x[0] + 33 x[1] + 11 x[2] + 64 x[3] + 45 x[4] + 2 x[5]
   + 34 x[6] + 28 x[7] + 42 x[8] + 27 x[9] + 4 x[10] + 76 x[11] + 73 x[12]
   + 85 x[13] + 73 x[14] + 17 x[15] + 30 x[16] + 61 x[17] + 62 x[18]
   + 83 x[19] + 18 x[20] + 56 x[21] + 57 x[22] + 99 x[23] + 41 x[24]
   + 9 x[25] + 55 x[26] + 88 x[27] + 2 x[28] + 92 x[29] + 46 x[30]
   + 100 x[31] + 92 x[32] + 34 x[33] + 13 x[34] + 50 x[35] + 57 x[36]
   + 77 x[37] + 29 x[38] + 31 x[39] + 8 x[40] + 70 x[41] + 15 x[42]
   + 42 x[43] + 36 x[44] + 19 x[45] + 2 x[46] + 6 x[47] + 4 x[48]
   + 21 x[49] + 95 x[50] + 89 x[51] + 46 x[52] + 85 x[53] + 61 x[54]
   + 36 x[55] + 18 x[56] + 79 x[57] + 57 x[58] + 31 x[59] + 17 x[60]
   + 23 x[61] + 72 x[62] + 31 x[63] + 64 x[64] + 57 x[65] + 49 x[66]
   + 83 x[67] + 21 x[68] + 34 x[69] + 34 x[70] + 62 x[71] + 47 x[72]
   + 28 x[73] + 12 x[74] + 61 x[75] + 99 x[76] + 12 x[77] + 25 x[78]
   + 79 x[79] + 7.6 r[0] + 3.3 r[1] + 1.1 r[2] + 6.4 r[3] + 4.5 r[4]
   + 0.2 r[5] + 3.4 r[6] + 2.8 r[7] + 4.2 r[8] + 2.7 r[9] + 0.4 r[10]
   + 7.6 r[11] + 7.3 r[12] + 8.5 r[13] + 7.3 r[14] + 1.7 r[15] + 3 r[16]
   + 6.1 r[17] + 6.2 r[18] + 8.3 r[19] + 1.8 r[20] + 5.6 r[21] + 5.7 r[22]
   + 9.9 r[23] + 4.1 r[24] + 0.9 r[25] + 5.5 r[26] + 8.8 r[27] + 0.2 r[28]
   + 9.2 r[29] + 4.6 r[30] + 10 r[31] + 9.2 r[32] + 3.4 r[33] + 1.3 r[34]
   + 5 r[35] + 5.7 r[36] + 7.7 r[37] + 2.9 r[38] + 3.1 r[39] + 0.8 r[40]
   + 7 r[41] + 1.5 r[42] + 4.2 r[43] + 3.6 r[44] + 1.9 r[45] + 0.2 r[46]
   + 0.6 r[47] + 0.4 r[48] + 2.1 r[49] + 9.5 r[50] + 8.9 r[51] + 4.6 r[52]
   + 8.5 r[53] + 6.1 r[54] + 3.6 r[55] + 1.8 r[56] + 7.9 r[57] + 5.7 r[58]
   + 3.1 r[59] + 1.7 r[60] + 2.3 r[61] + 7.2 r[62] + 3.1 r[63] + 6.4 r[64]
   + 5.7 r[65] + 4.9 r[66] + 8.3 r[67] + 2.1 r[68] + 3.4 r[69] + 3.4 r[70]
   + 6.2 r[71] + 4.7 r[72] + 2.8 r[73] + 1.2 r[74] + 6.1 r[75] + 9.9 r[76]
   + 1.2 r[77] + 2.5 r[78] + 7.9 r[79] <= 352
 primal_lower: 4.795955677923176 x[0] + 1.94960449821634 x[1]
   + 0.912529190471995 x[2] + 3.14284757907063 x[3]
   + 4.814266683256234 x[4] + 1.770298010583367 x[5]
   + 3.696678494770987 x[6] + 3.733728517394447 x[7]
   + 0.8856601591466517 x[8] + 3.429459237361737 x[9]
   + 0.2027688098972416 x[10] + 2.625234522101657 x[11]
   + 4.001817024923787 x[12] + 1.368740878565143 x[13]
   + 3.946897151483069 x[14] + 1.052029979145715 x[15]
   + 3.01964349399686 x[16] + 1.950271690797398 x[17]
   + 2.171429962380468 x[18] + 4.070156571296317 x[19]
   + 3.962494039171354 x[20] + 0.9461688250021868 x[21]
   + 2.574192779716525 x[22] + 0.715397310072365 x[23]
   + 3.149972833564692 x[24] + 1.675730616714991 x[25]
   + 2.358614539667323 x[26] + 2.4861902712439 x[27]
   + 4.817180704426012 x[28] + 3.256143705295213 x[29]
   + 3.306492526380694 x[30] + 3.86694792525949 x[31]
   + 2.955090124404784 x[32] + 2.513701734405649 x[33]
   + 2.519162239483196 x[34] + 2.805044738193294 x[35]
   + 2.025239382699091 x[36] + 0.8548965162923242 x[37]
   + 3.909743597016207 x[38] + 4.76808294791094 x[39]
   + 1.525573698030962 x[40] + 2.044114148052556 x[41]
   + 0.9431092903572005 x[42] + 3.960212712831673 x[43]
   + 0.5333854912113865 x[44] + 4.324185330746908 x[45]
   + 4.364662181817213 x[46] + 0.2339980462862192 x[47]
   + 2.112723498178566 x[48] + 3.435218264143342 x[49]
   + 1.488361706993422 x[50] + 1.68016282052887 x[51]
   + 1.912433397630561 x[52] + 3.396079948597163 x[53]
   + 2.987832887721805 x[54] + 1.044955009072777 x[55]
   + 2.437425502827533 x[56] + 0.0399247067007513 x[57]
   + 1.469851298328142 x[58] + 1.924417886661679 x[59]
   + 3.858930665932089 x[60] + 0.1443222712498543 x[61]
   + 3.258597460087738 x[62] + 2.373717891174767 x[63]
   + 3.194834888359248 x[64] + 2.528517976014018 x[65]
   + 2.548135406320486 x[66] + 2.302369859100651 x[67]
   + 3.355077631087753 x[68] + 3.657867841076072 x[69]
   + 2.704470715048684 x[70] + 1.908430672153517 x[71]
   + 2.957984430084791 x[72] + 3.004272207350984 x[73]
   + 3.321760347208139 x[74] + 1.303918305432494 x[75]
   + 1.444922967982366 x[76] + 3.184298581287968 x[77]
   + 0.2639906004194713 x[78] + 3.103665228725964 x[79] + 49 u[0] + 89 u[1]
   + 99 u[2] + 36 u[3] + 21 u[4] + 91 u[5] + 78 u[6] + 5 u[7] + 14 u[8]
   + 15 u[9] + 73 u[10] + 60 u[11] + 93 u[12] + 17 u[13] + 74 u[14]
   + 22 u[15] + 62 u[16] + 77 u[17] + 6 u[18] + 35 u[19] + 2 u[20]
   + 73 u[21] + 29 u[22] + 36 u[23] + 74 u[24] + 33 u[25] + 51 u[26]
   + 61 u[27] + 55 u[28] + 100 u[29] + 7 u[30] + 97 u[31] + 29 u[32]
   + 6 u[33] + 81 u[34] + 90 u[35] + 73 u[36] + 90 u[37] + 81 u[38]
   + 48 u[39] + 72 u[40] + 83 u[41] + 19 u[42] + 55 u[43] + 68 u[44]
   + 92 u[45] + 91 u[46] + 87 u[47] + 100 u[48] + 73 u[49] + 60 u[50]
   + 25 u[51] + 58 u[52] + 53 u[53] + 46 u[54] + 97 u[55] + 6 u[56]
   + 4 u[57] + 21 u[58] + 71 u[59] + 54 u[60] + 8 u[61] + 65 u[62]
   + 48 u[63] + 73 u[64] + 41 u[65] + 98 u[66] + 32 u[67] + 65 u[68]
   + 51 u[69] + 23 u[70] + 19 u[71] + 55 u[72] + 24 u[73] + 57 u[74]
   + 42 u[75] + 52 u[76] + 12 u[77] + 54 u[78] + 32 u[79] <= 53356
 mccormick1[0]: - u[0] + r[0] <= 0
 mccormick1[1]: - u[1] + r[1] <= 0
 mccormick1[2]: - u[2] + r[2] <= 0
 mccormick1[3]: - u[3] + r[3] <= 0
 mccormick1[4]: - u[4] + r[4] <= 0
 mccormick1[5]: - u[5] + r[5] <= 0
 mccormick1[6]: - u[6] + r[6] <= 0
 mccormick1[7]: - u[7] + r[7] <= 0
 mccormick1[8]: - u[8] + r[8] <= 0
 mccormick1[9]: - u[9] + r[9] <= 0
 mccormick1[10]: - u[10] + r[10] <= 0
 mccormick1[11]: - u[11] + r[11] <= 0
 mccormick1[12]: - u[12] + r[12] <= 0
 mccormick1[13]: - u[13] + r[13] <= 0
 mccormick1[14]: - u[14] + r[14] <= 0
 mccormick1[15]: - u[15] + r[15] <= 0
 mccormick1[16]: - u[16] + r[16] <= 0
 mccormick1[17]: - u[17] + r[17] <= 0
 mccormick1[18]: - u[18] + r[18] <= 0
 mccormick1[19]: - u[19] + r[19] <= 0
 mccormick1[20]: - u[20] + r[20] <= 0
 mccormick1[21]: - u[21] + r[21] <= 0
 mccormick1[22]: - u[22] + r[22] <= 0
 mccormick1[23]: - u[23] + r[23] <= 0
 mccormick1[24]: - u[24] + r[24] <= 0
 mccormick1[25]: - u[25] + r[25] <= 0
 mccormick1[26]: - u[26] + r[26] <= 0
 mccormick1[27]: - u[27] + r[27] <= 0
 mccormick1[28]: - u[28] + r[28] <= 0
 mccormick1[29]: - u[29] + r[29] <= 0
 mccormick1[30]: - u[30] + r[30] <= 0
 mccormick1[31]: - u[31] + r[31] <= 0
 mccormick1[32]: - u[32] + r[32] <= 0
 mccormick1[33]: - u[33] + r[33] <= 0
 mccormick1[34]: - u[34] + r[34] <= 0
 mccormick1[35]: - u[35] + r[35] <= 0
 mccormick1[36]: - u[36] + r[36] <= 0
 mccormick1[37]: - u[37] + r[37] <= 0
 mccormick1[38]: - u[38] + r[38] <= 0
 mccormick1[39]: - u[39] + r[39] <= 0
 mccormick1[40]: - u[40] + r[40] <= 0
 mccormick1[41]: - u[41] + r[41] <= 0
 mccormick1[42]: - u[42] + r[42] <= 0
 mccormick1[43]: - u[43] + r[43] <= 0
 mccormick1[44]: - u[44] + r[44] <= 0
 mccormick1[45]: - u[45] + r[45] <= 0
 mccormick1[46]: - u[46] + r[46] <= 0
 mccormick1[47]: - u[47] + r[47] <= 0
 mccormick1[48]: - u[48] + r[48] <= 0
 mccormick1[49]: - u[49] + r[49] <= 0
 mccormick1[50]: - u[50] + r[50] <= 0
 mccormick1[51]: - u[51] + r[51] <= 0
 mccormick1[52]: - u[52] + r[52] <= 0
 mccormick1[53]: - u[53] + r[53] <= 0
 mccormick1[54]: - u[54] + r[54] <= 0
 mccormick1[55]: - u[55] + r[55] <= 0
 mccormick1[56]: - u[56] + r[56] <= 0
 mccormick1[57]: - u[57] + r[57] <= 0
 mccormick1[58]: - u[58] + r[58] <= 0
 mccormick1[59]: - u[59] + r[59] <= 0
 mccormick1[60]: - u[60] + r[60] <= 0
 mccormick1[61]: - u[61] + r[61] <= 0
 mccormick1[62]: - u[62] + r[62] <= 0
 mccormick1[63]: - u[63] + r[63] <= 0
 mccormick1[64]: - u[64] + r[64] <= 0
 mccormick1[65]: - u[65] + r[65] <= 0
 mccormick1[66]: - u[66] + r[66] <= 0
 mccormick1[67]: - u[67] + r[67] <= 0
 mccormick1[68]: - u[68] + r[68] <= 0
 mccormick1[69]: - u[69] + r[69] <= 0
 mccormick1[70]: - u[70] + r[70] <= 0
 mccormick1[71]: - u[71] + r[71] <= 0
 mccormick1[72]: - u[72] + r[72] <= 0
 mccormick1[73]: - u[73] + r[73] <= 0
 mccormick1[74]: - u[74] + r[74] <= 0
 mccormick1[75]: - u[75] + r[75] <= 0
 mccormick1[76]: - u[76] + r[76] <= 0
 mccormick1[77]: - u[77] + r[77] <= 0
 mccormick1[78]: - u[78] + r[78] <= 0
 mccormick1[79]: - u[79] + r[79] <= 0
 mccormick2[0]: - x[0] + r[0] <= 0
 mccormick2[1]: - x[1] + r[1] <= 0
 mccormick2[2]: - x[2] + r[2] <= 0
 mccormick2[3]: - x[3] + r[3] <= 0
 mccormick2[4]: - x[4] + r[4] <= 0
 mccormick2[5]: - x[5] + r[5] <= 0
 mccormick2[6]: - x[6] + r[6] <= 0
 mccormick2[7]: - x[7] + r[7] <= 0
 mccormick2[8]: - x[8] + r[8] <= 0
 mccormick2[9]: - x[9] + r[9] <= 0
 mccormick2[10]: - x[10] + r[10] <= 0
 mccormick2[11]: - x[11] + r[11] <= 0
 mccormick2[12]: - x[12] + r[12] <= 0
 mccormick2[13]: - x[13] + r[13] <= 0
 mccormick2[14]: - x[14] + r[14] <= 0
 mccormick2[15]: - x[15] + r[15] <= 0
 mccormick2[16]: - x[16] + r[16] <= 0
 mccormick2[17]: - x[17] + r[17] <= 0
 mccormick2[18]: - x[18] + r[18] <= 0
 mccormick2[19]: - x[19] + r[19] <= 0
 mccormick2[20]: - x[20] + r[20] <= 0
 mccormick2[21]: - x[21] + r[21] <= 0
 mccormick2[22]: - x[22] + r[22] <= 0
 mccormick2[23]: - x[23] + r[23] <= 0
 mccormick2[24]: - x[24] + r[24] <= 0
 mccormick2[25]: - x[25] + r[25] <= 0
 mccormick2[26]: - x[26] + r[26] <= 0
 mccormick2[27]: - x[27] + r[27] <= 0
 mccormick2[28]: - x[28] + r[28] <= 0
 mccormick2[29]: - x[29] + r[29] <= 0
 mccormick2[30]: - x[30] + r[30] <= 0
 mccormick2[31]: - x[31] + r[31] <= 0
 mccormick2[32]: - x[32] + r[32] <= 0
 mccormick2[33]: - x[33] + r[33] <= 0
 mccormick2[34]: - x[34] + r[34] <= 0
 mccormick2[35]: - x[35] + r[35] <= 0
 mccormick2[36]: - x[36] + r[36] <= 0
 mccormick2[37]: - x[37] + r[37] <= 0
 mccormick2[38]: - x[38] + r[38] <= 0
 mccormick2[39]: - x[39] + r[39] <= 0
 mccormick2[40]: - x[40] + r[40] <= 0
 mccormick2[41]: - x[41] + r[41] <= 0
 mccormick2[42]: - x[42] + r[42] <= 0
 mccormick2[43]: - x[43] + r[43] <= 0
 mccormick2[44]: - x[44] + r[44] <= 0
 mccormick2[45]: - x[45] + r[45] <= 0
 mccormick2[46]: - x[46] + r[46] <= 0
 mccormick2[47]: - x[47] + r[47] <= 0
 mccormick2[48]: - x[48] + r[48] <= 0
 mccormick2[49]: - x[49] + r[49] <= 0
 mccormick2[50]: - x[50] + r[50] <= 0
 mccormick2[51]: - x[51] + r[51] <= 0
 mccormick2[52]: - x[52] + r[52] <= 0
 mccormick2[53]: - x[53] + r[53] <= 0
 mccormick2[54]: - x[54] + r[54] <= 0
 mccormick2[55]: - x[55] + r[55] <= 0
 mccormick2[56]: - x[56] + r[56] <= 0
 mccormick2[57]: - x[57] + r[57] <= 0
 mccormick2[58]: - x[58] + r[58] <= 0
 mccormick2[59]: - x[59] + r[59] <= 0
 mccormick2[60]: - x[60] + r[60] <= 0
 mccormick2[61]: - x[61] + r[61] <= 0
 mccormick2[62]: - x[62] + r[62] <= 0
 mccormick2[63]: - x[63] + r[63] <= 0
 mccormick2[64]: - x[64] + r[64] <= 0
 mccormick2[65]: - x[65] + r[65] <= 0
 mccormick2[66]: - x[66] + r[66] <= 0
 mccormick2[67]: - x[67] + r[67] <= 0
 mccormick2[68]: - x[68] + r[68] <= 0
 mccormick2[69]: - x[69] + r[69] <= 0
 mccormick2[70]: - x[70] + r[70] <= 0
 mccormick2[71]: - x[71] + r[71] <= 0
 mccormick2[72]: - x[72] + r[72] <= 0
 mccormick2[73]: - x[73] + r[73] <= 0
 mccormick2[74]: - x[74] + r[74] <= 0
 mccormick2[75]: - x[75] + r[75] <= 0
 mccormick2[76]: - x[76] + r[76] <= 0
 mccormick2[77]: - x[77] + r[77] <= 0
 mccormick2[78]: - x[78] + r[78] <= 0
 mccormick2[79]: - x[79] + r[79] <= 0
 mccormick3[0]: x[0] + u[0] - r[0] <= 1
 mccormick3[1]: x[1] + u[1] - r[1] <= 1
 mccormick3[2]: x[2] + u[2] - r[2] <= 1
 mccormick3[3]: x[3] + u[3] - r[3] <= 1
 mccormick3[4]: x[4] + u[4] - r[4] <= 1
 mccormick3[5]: x[5] + u[5] - r[5] <= 1
 mccormick3[6]: x[6] + u[6] - r[6] <= 1
 mccormick3[7]: x[7] + u[7] - r[7] <= 1
 mccormick3[8]: x[8] + u[8] - r[8] <= 1
 mccormick3[9]: x[9] + u[9] - r[9] <= 1
 mccormick3[10]: x[10] + u[10] - r[10] <= 1
 mccormick3[11]: x[11] + u[11] - r[11] <= 1
 mccormick3[12]: x[12] + u[12] - r[12] <= 1
 mccormick3[13]: x[13] + u[13] - r[13] <= 1
 mccormick3[14]: x[14] + u[14] - r[14] <= 1
 mccormick3[15]: x[15] + u[15] - r[15] <= 1
 mccormick3[16]: x[16] + u[16] - r[16] <= 1
 mccormick3[17]: x[17] + u[17] - r[17] <= 1
 mccormick3[18]: x[18] + u[18] - r[18] <= 1
 mccormick3[19]: x[19] + u[19] - r[19] <= 1
 mccormick3[20]: x[20] + u[20] - r[20] <= 1
 mccormick3[21]: x[21] + u[21] - r[21] <= 1
 mccormick3[22]: x[22] + u[22] - r[22] <= 1
 mccormick3[23]: x[23] + u[23] - r[23] <= 1
 mccormick3[24]: x[24] + u[24] - r[24] <= 1
 mccormick3[25]: x[25] + u[25] - r[25] <= 1
 mccormick3[26]: x[26] + u[26] - r[26] <= 1
 mccormick3[27]: x[27] + u[27] - r[27] <= 1
 mccormick3[28]: x[28] + u[28] - r[28] <= 1
 mccormick3[29]: x[29] + u[29] - r[29] <= 1
 mccormick3[30]: x[30] + u[30] - r[30] <= 1
 mccormick3[31]: x[31] + u[31] - r[31] <= 1
 mccormick3[32]: x[32] + u[32] - r[32] <= 1
 mccormick3[33]: x[33] + u[33] - r[33] <= 1
 mccormick3[34]: x[34] + u[34] - r[34] <= 1
 mccormick3[35]: x[35] + u[35] - r[35] <= 1
 mccormick3[36]: x[36] + u[36] - r[36] <= 1
 mccormick3[37]: x[37] + u[37] - r[37] <= 1
 mccormick3[38]: x[38] + u[38] - r[38] <= 1
 mccormick3[39]: x[39] + u[39] - r[39] <= 1
 mccormick3[40]: x[40] + u[40] - r[40] <= 1
 mccormick3[41]: x[41] + u[41] - r[41] <= 1
 mccormick3[42]: x[42] + u[42] - r[42] <= 1
 mccormick3[43]: x[43] + u[43] - r[43] <= 1
 mccormick3[44]: x[44] + u[44] - r[44] <= 1
 mccormick3[45]: x[45] + u[45] - r[45] <= 1
 mccormick3[46]: x[46] + u[46] - r[46] <= 1
 mccormick3[47]: x[47] + u[47] - r[47] <= 1
 mccormick3[48]: x[48] + u[48] - r[48] <= 1
 mccormick3[49]: x[49] + u[49] - r[49] <= 1
 mccormick3[50]: x[50] + u[50] - r[50] <= 1
 mccormick3[51]: x[51] + u[51] - r[51] <= 1
 mccormick3[52]: x[52] + u[52] - r[52] <= 1
 mccormick3[53]: x[53] + u[53] - r[53] <= 1
 mccormick3[54]: x[54] + u[54] - r[54] <= 1
 mccormick3[55]: x[55] + u[55] - r[55] <= 1
 mccormick3[56]: x[56] + u[56] - r[56] <= 1
 mccormick3[57]: x[57] + u[57] - r[57] <= 1
 mccormick3[58]: x[58] + u[58] - r[58] <= 1
 mccormick3[59]: x[59] + u[59] - r[59] <= 1
 mccormick3[60]: x[60] + u[60] - r[60] <= 1
 mccormick3[61]: x[61] + u[61] - r[61] <= 1
 mccormick3[62]: x[62] + u[62] - r[62] <= 1
 mccormick3[63]: x[63] + u[63] - r[63] <= 1
 mccormick3[64]: x[64] + u[64] - r[64] <= 1
 mccormick3[65]: x[65] + u[65] - r[65] <= 1
 mccormick3[66]: x[66] + u[66] - r[66] <= 1
 mccormick3[67]: x[67] + u[67] - r[67] <= 1
 mccormick3[68]: x[68] + u[68] - r[68] <= 1
 mccormick3[69]: x[69] + u[69] - r[69] <= 1
 mccormick3[70]: x[70] + u[70] - r[70] <= 1
 mccormick3[71]: x[71] + u[71] - r[71] <= 1
 mccormick3[72]: x[72] + u[72] - r[72] <= 1
 mccormick3[73]: x[73] + u[73] - r[73] <= 1
 mccormick3[74]: x[74] + u[74] - r[74] <= 1
 mccormick3[75]: x[75] + u[75] - r[75] <= 1
 mccormick3[76]: x[76] + u[76] - r[76] <= 1
 mccormick3[77]: x[77] + u[77] - r[77] <= 1
 mccormick3[78]: x[78] + u[78] - r[78] <= 1
 mccormick3[79]: x[79] + u[79] - r[79] <= 1
Bounds
Binaries
 x[0] x[1] x[2] x[3] x[4] x[5] x[6] x[7] x[8] x[9] x[10] x[11] x[12] x[13]
 x[14] x[15] x[16] x[17] x[18] x[19] x[20] x[21] x[22] x[23] x[24] x[25]
 x[26] x[27] x[28] x[29] x[30] x[31] x[32] x[33] x[34] x[35] x[36] x[37]
 x[38] x[39] x[40] x[41] x[42] x[43] x[44] x[45] x[46] x[47] x[48] x[49]
 x[50] x[51] x[52] x[53] x[54] x[55] x[56] x[57] x[58] x[59] x[60] x[61]
 x[62] x[63] x[64] x[65] x[66] x[67] x[68] x[69] x[70] x[71] x[72] x[73]
 x[74] x[75] x[76] x[77] x[78] x[79] u[0] u[1] u[2] u[3] u[4] u[5] u[6]
 u[7] u[8] u[9] u[10] u[11] u[12] u[13] u[14] u[15] u[16] u[17] u[18] u[19]
 u[20] u[21] u[22] u[23] u[24] u[25] u[26] u[27] u[28] u[29] u[30] u[31]
 u[32] u[33] u[34] u[35] u[36] u[37] u[38] u[39] u[40] u[41] u[42] u[43]
 u[44] u[45] u[46] u[47] u[48] u[49] u[50] u[51] u[52] u[53] u[54] u[55]
 u[56] u[57] u[58] u[59] u[60] u[61] u[62] u[63] u[64] u[65] u[66] u[67]
 u[68] u[69] u[70] u[71] u[72] u[73] u[74] u[75] u[76] u[77] u[78] u[79]
 r[0] r[1] r[2] r[3] r[4] r[5] r[6] r[7] r[8] r[9] r[10] r[11] r[12] r[13]
 r[14] r[15] r[16] r[17] r[18] r[19] r[20] r[21] r[22] r[23] r[24] r[25]
 r[26] r[27] r[28] r[29] r[30] r[31] r[32] r[33] r[34] r[35] r[36] r[37]
 r[38] r[39] r[40] r[41] r[42] r[43] r[44] r[45] r[46] r[47] r[48] r[49]
 r[50] r[51] r[52] r[53] r[54] r[55] r[56] r[57] r[58] r[59] r[60] r[61]
 r[62] r[63] r[64] r[65] r[66] r[67] r[68] r[69] r[70] r[71] r[72] r[73]
 r[74] r[75] r[76] r[77] r[78] r[79]
End
